c AI planning file sortnetsort5.AE.stepl.004.qcnf (Jussi.Rintanen@NICTA.com.au)
p cnf 791 1334 
a 31 32 33 34 35 36 37 38 39 40 41 42 43 44 45 46 47 48 49 50 51 52 53 54 55 56 57 58 59 60 61 62 63 64 65 66 67 68 69 70 71 72 73 74 75 76 77 78 79 80 81 82 83 84 85 86 87 88 89 90 91 92 93 94 660 661 662 663 664 665 666 667 668 669 670 671 672 673 674 675 676 677 678 679 680 681 682 683 704 705 706 707 708 709 710 711 712 713 714 715 716 717 718 719 720 721 722 723 724 725 726 727 748 749 750 751 752 753 754 755 756 757 758 759 760 761 762 763 764 765 766 767 768 769 770 771 0
e 1 2 3 4 5 6 7 8 9 10 11 12 13 14 15 16 17 18 19 20 21 22 23 24 25 26 27 28 29 30 95 96 97 98 99 100 101 102 103 104 105 106 107 108 109 110 111 112 113 114 115 116 117 118 119 120 121 122 123 124 125 126 127 128 129 130 131 132 133 134 135 136 137 138 139 140 141 142 143 144 145 146 147 148 149 150 151 152 153 154 155 156 157 158 159 160 161 162 163 164 165 166 167 168 169 170 171 172 173 174 175 176 177 178 179 180 181 182 183 184 185 186 187 188 189 190 191 192 193 194 195 196 197 198 199 200 201 202 203 204 205 206 207 208 209 210 211 212 213 214 215 216 217 218 219 220 221 222 223 224 225 226 227 228 229 230 231 232 233 234 235 236 237 238 239 240 241 242 243 244 245 246 247 248 249 250 251 252 253 254 255 256 257 258 259 260 261 262 263 264 265 266 267 268 269 270 271 272 273 274 275 276 277 278 279 280 281 282 283 284 285 286 287 288 289 290 291 292 293 294 295 296 297 298 299 300 301 302 303 304 305 306 307 308 309 310 311 312 313 314 315 316 317 318 319 320 321 322 323 324 325 326 327 328 329 330 331 332 333 334 335 336 337 338 339 340 341 342 343 344 345 346 347 348 349 350 351 352 353 354 355 356 357 358 359 360 361 362 363 364 365 366 367 368 369 370 371 372 373 374 375 376 377 378 379 380 381 382 383 384 385 386 387 388 389 390 391 392 393 394 395 396 397 398 399 400 401 402 403 404 405 406 407 408 409 410 411 412 413 414 415 416 417 418 419 420 421 422 423 424 425 426 427 428 429 430 431 432 433 434 435 436 437 438 439 440 441 442 443 444 445 446 447 448 449 450 451 452 453 454 455 456 457 458 459 460 461 462 463 464 465 466 467 468 469 470 471 472 473 474 475 476 477 478 479 480 481 482 483 484 485 486 487 488 489 490 491 492 493 494 495 496 497 498 499 500 501 502 503 504 505 506 507 508 509 510 511 512 513 514 515 516 517 518 519 520 521 522 523 524 525 526 527 528 529 530 531 532 533 534 535 536 537 538 539 540 541 542 543 544 545 546 547 548 549 550 551 552 553 554 555 556 557 558 559 560 561 562 563 564 565 566 567 568 569 570 571 572 573 574 575 576 577 578 579 580 581 582 583 584 585 586 587 588 589 590 591 592 593 594 595 596 597 598 599 600 601 602 603 604 605 606 607 608 609 610 611 612 613 614 615 616 617 618 619 620 621 622 623 624 625 626 627 628 629 630 631 632 633 634 635 636 637 638 639 640 641 642 643 644 645 646 647 648 649 650 651 652 653 654 655 656 657 658 659 684 685 686 687 688 689 690 691 692 693 694 695 696 697 698 699 700 701 702 703 728 729 730 731 732 733 734 735 736 737 738 739 740 741 742 743 744 745 746 747 772 773 774 775 776 777 778 779 780 781 782 783 784 785 786 787 788 789 790 791 0
323 324 325 326 327 328 329 330 331 332 333 334 335 336 337 338 339 340 341 342 343 344 345 346 347 348 349 350 351 352 353 354 355 356 357 358 359 360 361 362 363 364 365 366 367 368 369 370 371 372 373 374 375 376 377 378 379 380 381 382 383 384 385 386 387 388 389 390 391 392 393 394 395 396 397 398 399 400 401 402 403 404 405 406 407 408 409 410 411 412 413 414 415 416 417 418 419 420 421 422 423 424 425 426 427 428 429 430 431 432 433 434 435 436 437 438 439 440 441 442 443 444 445 446 447 448 449 450 451 452 453 454 455 456 457 458 459 460 461 462 463 464 465 466 467 468 469 470 471 472 473 474 475 476 477 478 479 480 481 482 483 484 485 486 487 488 489 490 491 492 493 494 495 496 497 498 499 500 501 502 503 504 505 506 507 508 509 510 511 512 513 514 515 516 517 518 519 520 521 522 523 524 525 526 527 528 529 530 531 532 533 534 535 536 537 538 539 540 541 542 543 544 545 546 547 548 549 550 551 552 553 554 555 556 557 558 559 560 561 562 563 564 565 566 567 568 569 570 571 572 573 574 575 576 577 578 579 580 581 582 583 584 585 586 587 588 589 590 591 592 593 594 595 596 597 598 599 600 601 602 603 604 605 606 607 608 609 610 611 612 613 614 615 616 617 618 619 620 621 622 623 624 625 626 627 628 629 630 631 632 633 634 635 636 637 638 639 640 641 642 643 644 645 646 647 648 649 650 651 652 653 654 655 656 657 658 659 0
-323 312 313 314 315 316 317 318 319 320 321 322 0
-324 81 0
-324 -82 0
-325 34 0
-325 -82 0
-326 81 0
-326 34 0
-327 80 0
-327 -81 0
-328 33 0
-328 -81 0
-329 80 0
-329 33 0
-330 31 0
-330 -80 0
-331 32 0
-331 -80 0
-332 31 0
-332 32 0
-333 78 0
-333 -79 0
-334 37 0
-334 -79 0
-335 78 0
-335 37 0
-336 35 0
-336 -78 0
-337 36 0
-337 -78 0
-338 35 0
-338 36 0
-339 31 0
-339 37 0
-340 31 0
-340 36 0
-341 31 0
-341 35 0
-342 38 0
-342 -77 0
-343 39 0
-343 -77 0
-344 38 0
-344 39 0
-345 76 0
-345 39 0
-346 76 0
-346 38 0
-347 32 0
-347 -76 0
-348 35 0
-348 -76 0
-349 32 0
-349 35 0
-350 75 0
-350 40 0
-351 74 0
-351 -75 0
-352 38 0
-352 -75 0
-353 74 0
-353 38 0
-354 33 0
-354 -74 0
-355 36 0
-355 -74 0
-356 33 0
-356 36 0
-357 72 0
-357 -73 0
-358 40 0
-358 -73 0
-359 72 0
-359 40 0
-360 71 0
-360 -72 0
-361 39 0
-361 -72 0
-362 71 0
-362 39 0
-363 34 0
-363 -71 0
-364 37 0
-364 -71 0
-365 34 0
-365 37 0
-366 93 0
-366 -94 0
-367 31 0
-367 -94 0
-368 93 0
-368 31 0
-369 92 0
-369 -93 0
-370 32 0
-370 -93 0
-371 92 0
-371 32 0
-372 34 0
-372 -92 0
-373 33 0
-373 -92 0
-374 34 0
-374 33 0
-375 91 0
-375 31 0
-376 90 0
-376 -91 0
-377 35 0
-377 -91 0
-378 90 0
-378 35 0
-379 37 0
-379 -90 0
-380 36 0
-380 -90 0
-381 37 0
-381 36 0
-382 89 0
-382 32 0
-383 89 0
-383 35 0
-384 39 0
-384 -89 0
-385 38 0
-385 -89 0
-386 39 0
-386 38 0
-387 35 0
-387 -88 0
-388 32 0
-388 -88 0
-389 35 0
-389 32 0
-390 40 0
-390 33 0
-391 40 0
-391 36 0
-392 40 0
-392 38 0
-393 86 0
-393 -87 0
-394 33 0
-394 -87 0
-395 86 0
-395 33 0
-396 38 0
-396 -86 0
-397 36 0
-397 -86 0
-398 38 0
-398 36 0
-399 84 0
-399 -85 0
-400 34 0
-400 -85 0
-401 84 0
-401 34 0
-402 83 0
-402 -84 0
-403 37 0
-403 -84 0
-404 83 0
-404 37 0
-405 40 0
-405 -83 0
-406 39 0
-406 -83 0
-407 40 0
-407 39 0
-408 670 0
-408 -671 0
-409 44 0
-409 -671 0
-410 670 0
-410 44 0
-411 669 0
-411 -670 0
-412 43 0
-412 -670 0
-413 669 0
-413 43 0
-414 41 0
-414 -669 0
-415 42 0
-415 -669 0
-416 41 0
-416 42 0
-417 667 0
-417 -668 0
-418 47 0
-418 -668 0
-419 667 0
-419 47 0
-420 45 0
-420 -667 0
-421 46 0
-421 -667 0
-422 45 0
-422 46 0
-423 41 0
-423 47 0
-424 41 0
-424 46 0
-425 41 0
-425 45 0
-426 48 0
-426 -666 0
-427 49 0
-427 -666 0
-428 48 0
-428 49 0
-429 665 0
-429 49 0
-430 665 0
-430 48 0
-431 42 0
-431 -665 0
-432 45 0
-432 -665 0
-433 42 0
-433 45 0
-434 664 0
-434 50 0
-435 663 0
-435 -664 0
-436 48 0
-436 -664 0
-437 663 0
-437 48 0
-438 43 0
-438 -663 0
-439 46 0
-439 -663 0
-440 43 0
-440 46 0
-441 661 0
-441 -662 0
-442 50 0
-442 -662 0
-443 661 0
-443 50 0
-444 660 0
-444 -661 0
-445 49 0
-445 -661 0
-446 660 0
-446 49 0
-447 44 0
-447 -660 0
-448 47 0
-448 -660 0
-449 44 0
-449 47 0
-450 682 0
-450 -683 0
-451 41 0
-451 -683 0
-452 682 0
-452 41 0
-453 681 0
-453 -682 0
-454 42 0
-454 -682 0
-455 681 0
-455 42 0
-456 44 0
-456 -681 0
-457 43 0
-457 -681 0
-458 44 0
-458 43 0
-459 680 0
-459 41 0
-460 679 0
-460 -680 0
-461 45 0
-461 -680 0
-462 679 0
-462 45 0
-463 47 0
-463 -679 0
-464 46 0
-464 -679 0
-465 47 0
-465 46 0
-466 678 0
-466 42 0
-467 678 0
-467 45 0
-468 49 0
-468 -678 0
-469 48 0
-469 -678 0
-470 49 0
-470 48 0
-471 45 0
-471 -677 0
-472 42 0
-472 -677 0
-473 45 0
-473 42 0
-474 50 0
-474 43 0
-475 50 0
-475 46 0
-476 50 0
-476 48 0
-477 675 0
-477 -676 0
-478 43 0
-478 -676 0
-479 675 0
-479 43 0
-480 48 0
-480 -675 0
-481 46 0
-481 -675 0
-482 48 0
-482 46 0
-483 673 0
-483 -674 0
-484 44 0
-484 -674 0
-485 673 0
-485 44 0
-486 672 0
-486 -673 0
-487 47 0
-487 -673 0
-488 672 0
-488 47 0
-489 50 0
-489 -672 0
-490 49 0
-490 -672 0
-491 50 0
-491 49 0
-492 714 0
-492 -715 0
-493 54 0
-493 -715 0
-494 714 0
-494 54 0
-495 713 0
-495 -714 0
-496 53 0
-496 -714 0
-497 713 0
-497 53 0
-498 51 0
-498 -713 0
-499 52 0
-499 -713 0
-500 51 0
-500 52 0
-501 711 0
-501 -712 0
-502 57 0
-502 -712 0
-503 711 0
-503 57 0
-504 55 0
-504 -711 0
-505 56 0
-505 -711 0
-506 55 0
-506 56 0
-507 51 0
-507 57 0
-508 51 0
-508 56 0
-509 51 0
-509 55 0
-510 58 0
-510 -710 0
-511 59 0
-511 -710 0
-512 58 0
-512 59 0
-513 709 0
-513 59 0
-514 709 0
-514 58 0
-515 52 0
-515 -709 0
-516 55 0
-516 -709 0
-517 52 0
-517 55 0
-518 708 0
-518 60 0
-519 707 0
-519 -708 0
-520 58 0
-520 -708 0
-521 707 0
-521 58 0
-522 53 0
-522 -707 0
-523 56 0
-523 -707 0
-524 53 0
-524 56 0
-525 705 0
-525 -706 0
-526 60 0
-526 -706 0
-527 705 0
-527 60 0
-528 704 0
-528 -705 0
-529 59 0
-529 -705 0
-530 704 0
-530 59 0
-531 54 0
-531 -704 0
-532 57 0
-532 -704 0
-533 54 0
-533 57 0
-534 726 0
-534 -727 0
-535 51 0
-535 -727 0
-536 726 0
-536 51 0
-537 725 0
-537 -726 0
-538 52 0
-538 -726 0
-539 725 0
-539 52 0
-540 54 0
-540 -725 0
-541 53 0
-541 -725 0
-542 54 0
-542 53 0
-543 724 0
-543 51 0
-544 723 0
-544 -724 0
-545 55 0
-545 -724 0
-546 723 0
-546 55 0
-547 57 0
-547 -723 0
-548 56 0
-548 -723 0
-549 57 0
-549 56 0
-550 722 0
-550 52 0
-551 722 0
-551 55 0
-552 59 0
-552 -722 0
-553 58 0
-553 -722 0
-554 59 0
-554 58 0
-555 55 0
-555 -721 0
-556 52 0
-556 -721 0
-557 55 0
-557 52 0
-558 60 0
-558 53 0
-559 60 0
-559 56 0
-560 60 0
-560 58 0
-561 719 0
-561 -720 0
-562 53 0
-562 -720 0
-563 719 0
-563 53 0
-564 58 0
-564 -719 0
-565 56 0
-565 -719 0
-566 58 0
-566 56 0
-567 717 0
-567 -718 0
-568 54 0
-568 -718 0
-569 717 0
-569 54 0
-570 716 0
-570 -717 0
-571 57 0
-571 -717 0
-572 716 0
-572 57 0
-573 60 0
-573 -716 0
-574 59 0
-574 -716 0
-575 60 0
-575 59 0
-576 758 0
-576 -759 0
-577 64 0
-577 -759 0
-578 758 0
-578 64 0
-579 757 0
-579 -758 0
-580 63 0
-580 -758 0
-581 757 0
-581 63 0
-582 61 0
-582 -757 0
-583 62 0
-583 -757 0
-584 61 0
-584 62 0
-585 755 0
-585 -756 0
-586 67 0
-586 -756 0
-587 755 0
-587 67 0
-588 65 0
-588 -755 0
-589 66 0
-589 -755 0
-590 65 0
-590 66 0
-591 61 0
-591 67 0
-592 61 0
-592 66 0
-593 61 0
-593 65 0
-594 68 0
-594 -754 0
-595 69 0
-595 -754 0
-596 68 0
-596 69 0
-597 753 0
-597 69 0
-598 753 0
-598 68 0
-599 62 0
-599 -753 0
-600 65 0
-600 -753 0
-601 62 0
-601 65 0
-602 752 0
-602 70 0
-603 751 0
-603 -752 0
-604 68 0
-604 -752 0
-605 751 0
-605 68 0
-606 63 0
-606 -751 0
-607 66 0
-607 -751 0
-608 63 0
-608 66 0
-609 749 0
-609 -750 0
-610 70 0
-610 -750 0
-611 749 0
-611 70 0
-612 748 0
-612 -749 0
-613 69 0
-613 -749 0
-614 748 0
-614 69 0
-615 64 0
-615 -748 0
-616 67 0
-616 -748 0
-617 64 0
-617 67 0
-618 770 0
-618 -771 0
-619 61 0
-619 -771 0
-620 770 0
-620 61 0
-621 769 0
-621 -770 0
-622 62 0
-622 -770 0
-623 769 0
-623 62 0
-624 64 0
-624 -769 0
-625 63 0
-625 -769 0
-626 64 0
-626 63 0
-627 768 0
-627 61 0
-628 767 0
-628 -768 0
-629 65 0
-629 -768 0
-630 767 0
-630 65 0
-631 67 0
-631 -767 0
-632 66 0
-632 -767 0
-633 67 0
-633 66 0
-634 766 0
-634 62 0
-635 766 0
-635 65 0
-636 69 0
-636 -766 0
-637 68 0
-637 -766 0
-638 69 0
-638 68 0
-639 65 0
-639 -765 0
-640 62 0
-640 -765 0
-641 65 0
-641 62 0
-642 70 0
-642 63 0
-643 70 0
-643 66 0
-644 70 0
-644 68 0
-645 763 0
-645 -764 0
-646 63 0
-646 -764 0
-647 763 0
-647 63 0
-648 68 0
-648 -763 0
-649 66 0
-649 -763 0
-650 68 0
-650 66 0
-651 761 0
-651 -762 0
-652 64 0
-652 -762 0
-653 761 0
-653 64 0
-654 760 0
-654 -761 0
-655 67 0
-655 -761 0
-656 760 0
-656 67 0
-657 70 0
-657 -760 0
-658 69 0
-658 -760 0
-659 70 0
-659 69 0
-312 1 -7 0
-312 -1 7 98 97 96 95 0
-312 -98 311 0
-312 -31 -1 2 98 0
-312 -97 310 0
-312 -32 -1 3 97 0
-312 -96 309 0
-312 -33 -1 4 96 0
-312 -95 308 0
-312 -34 -1 5 95 0
-312 2 -8 99 0
-312 -2 8 102 101 100 0
-312 -99 307 0
-312 -31 -1 2 99 0
-312 -102 306 0
-312 -35 -2 3 102 0
-312 -101 305 0
-312 -36 -2 4 101 0
-312 -100 304 0
-312 -37 -2 5 100 0
-312 3 -9 104 103 0
-312 -3 9 106 105 0
-312 -104 303 0
-312 -32 -1 3 104 0
-312 -103 302 0
-312 -35 -2 3 103 0
-312 -106 301 0
-312 -38 -3 4 106 0
-312 -105 300 0
-312 -39 -3 5 105 0
-312 4 -10 109 108 107 0
-312 -4 10 110 0
-312 -109 299 0
-312 -33 -1 4 109 0
-312 -108 298 0
-312 -36 -2 4 108 0
-312 -107 297 0
-312 -38 -3 4 107 0
-312 -110 296 0
-312 -40 -4 5 110 0
-312 5 -11 114 113 112 111 0
-312 -5 11 0
-312 -114 295 0
-312 -34 -1 5 114 0
-312 -113 294 0
-312 -37 -2 5 113 0
-312 -112 293 0
-312 -39 -3 5 112 0
-312 -111 292 0
-312 -40 -4 5 111 0
-312 6 -12 0
-312 -6 12 0
-312 290 291 0
-312 288 289 0
-312 286 287 0
-312 284 285 0
-312 282 283 0
-312 280 281 0
-312 278 279 0
-312 276 277 0
-312 274 275 0
-312 272 273 0
-312 261 262 263 264 265 266 267 268 269 270 271 0
-313 0
-314 0
-315 0
-316 0
-317 0
-318 0
-319 0
-320 0
-321 0
-322 0
-311 31 0
-311 1 0
-311 -2 0
-310 32 0
-310 1 0
-310 -3 0
-309 33 0
-309 1 0
-309 -4 0
-308 34 0
-308 1 0
-308 -5 0
-307 31 0
-307 1 0
-307 -2 0
-306 35 0
-306 2 0
-306 -3 0
-305 36 0
-305 2 0
-305 -4 0
-304 37 0
-304 2 0
-304 -5 0
-303 32 0
-303 1 0
-303 -3 0
-302 35 0
-302 2 0
-302 -3 0
-301 38 0
-301 3 0
-301 -4 0
-300 39 0
-300 3 0
-300 -5 0
-299 33 0
-299 1 0
-299 -4 0
-298 36 0
-298 2 0
-298 -4 0
-297 38 0
-297 3 0
-297 -4 0
-296 40 0
-296 4 0
-296 -5 0
-295 34 0
-295 1 0
-295 -5 0
-294 37 0
-294 2 0
-294 -5 0
-293 39 0
-293 3 0
-293 -5 0
-292 40 0
-292 4 0
-292 -5 0
-290 -31 -1 2 0
-291 -7 0
-291 8 0
-288 -32 -1 3 0
-289 -7 0
-289 9 0
-286 -33 -1 4 0
-287 -7 0
-287 10 0
-284 -34 -1 5 0
-285 -7 0
-285 11 0
-282 -35 -2 3 0
-283 -8 0
-283 9 0
-280 -36 -2 4 0
-281 -8 0
-281 10 0
-278 -37 -2 5 0
-279 -8 0
-279 11 0
-276 -38 -3 4 0
-277 -9 0
-277 10 0
-274 -39 -3 5 0
-275 -9 0
-275 11 0
-272 -40 -4 5 0
-273 -10 0
-273 11 0
-261 7 -13 0
-261 -7 13 687 686 685 684 0
-261 -687 260 0
-261 -41 -7 8 687 0
-261 -686 259 0
-261 -42 -7 9 686 0
-261 -685 258 0
-261 -43 -7 10 685 0
-261 -684 257 0
-261 -44 -7 11 684 0
-261 8 -14 688 0
-261 -8 14 691 690 689 0
-261 -688 256 0
-261 -41 -7 8 688 0
-261 -691 255 0
-261 -45 -8 9 691 0
-261 -690 254 0
-261 -46 -8 10 690 0
-261 -689 253 0
-261 -47 -8 11 689 0
-261 9 -15 693 692 0
-261 -9 15 695 694 0
-261 -693 252 0
-261 -42 -7 9 693 0
-261 -692 251 0
-261 -45 -8 9 692 0
-261 -695 250 0
-261 -48 -9 10 695 0
-261 -694 249 0
-261 -49 -9 11 694 0
-261 10 -16 698 697 696 0
-261 -10 16 699 0
-261 -698 248 0
-261 -43 -7 10 698 0
-261 -697 247 0
-261 -46 -8 10 697 0
-261 -696 246 0
-261 -48 -9 10 696 0
-261 -699 245 0
-261 -50 -10 11 699 0
-261 11 -17 703 702 701 700 0
-261 -11 17 0
-261 -703 244 0
-261 -44 -7 11 703 0
-261 -702 243 0
-261 -47 -8 11 702 0
-261 -701 242 0
-261 -49 -9 11 701 0
-261 -700 241 0
-261 -50 -10 11 700 0
-261 12 -18 0
-261 -12 18 0
-261 239 240 0
-261 237 238 0
-261 235 236 0
-261 233 234 0
-261 231 232 0
-261 229 230 0
-261 227 228 0
-261 225 226 0
-261 223 224 0
-261 221 222 0
-261 210 211 212 213 214 215 216 217 218 219 220 0
-262 0
-263 0
-264 0
-265 0
-266 0
-267 0
-268 0
-269 0
-270 0
-271 0
-260 41 0
-260 7 0
-260 -8 0
-259 42 0
-259 7 0
-259 -9 0
-258 43 0
-258 7 0
-258 -10 0
-257 44 0
-257 7 0
-257 -11 0
-256 41 0
-256 7 0
-256 -8 0
-255 45 0
-255 8 0
-255 -9 0
-254 46 0
-254 8 0
-254 -10 0
-253 47 0
-253 8 0
-253 -11 0
-252 42 0
-252 7 0
-252 -9 0
-251 45 0
-251 8 0
-251 -9 0
-250 48 0
-250 9 0
-250 -10 0
-249 49 0
-249 9 0
-249 -11 0
-248 43 0
-248 7 0
-248 -10 0
-247 46 0
-247 8 0
-247 -10 0
-246 48 0
-246 9 0
-246 -10 0
-245 50 0
-245 10 0
-245 -11 0
-244 44 0
-244 7 0
-244 -11 0
-243 47 0
-243 8 0
-243 -11 0
-242 49 0
-242 9 0
-242 -11 0
-241 50 0
-241 10 0
-241 -11 0
-239 -41 -7 8 0
-240 -13 0
-240 14 0
-237 -42 -7 9 0
-238 -13 0
-238 15 0
-235 -43 -7 10 0
-236 -13 0
-236 16 0
-233 -44 -7 11 0
-234 -13 0
-234 17 0
-231 -45 -8 9 0
-232 -14 0
-232 15 0
-229 -46 -8 10 0
-230 -14 0
-230 16 0
-227 -47 -8 11 0
-228 -14 0
-228 17 0
-225 -48 -9 10 0
-226 -15 0
-226 16 0
-223 -49 -9 11 0
-224 -15 0
-224 17 0
-221 -50 -10 11 0
-222 -16 0
-222 17 0
-210 13 -19 0
-210 -13 19 731 730 729 728 0
-210 -731 209 0
-210 -51 -13 14 731 0
-210 -730 208 0
-210 -52 -13 15 730 0
-210 -729 207 0
-210 -53 -13 16 729 0
-210 -728 206 0
-210 -54 -13 17 728 0
-210 14 -20 732 0
-210 -14 20 735 734 733 0
-210 -732 205 0
-210 -51 -13 14 732 0
-210 -735 204 0
-210 -55 -14 15 735 0
-210 -734 203 0
-210 -56 -14 16 734 0
-210 -733 202 0
-210 -57 -14 17 733 0
-210 15 -21 737 736 0
-210 -15 21 739 738 0
-210 -737 201 0
-210 -52 -13 15 737 0
-210 -736 200 0
-210 -55 -14 15 736 0
-210 -739 199 0
-210 -58 -15 16 739 0
-210 -738 198 0
-210 -59 -15 17 738 0
-210 16 -22 742 741 740 0
-210 -16 22 743 0
-210 -742 197 0
-210 -53 -13 16 742 0
-210 -741 196 0
-210 -56 -14 16 741 0
-210 -740 195 0
-210 -58 -15 16 740 0
-210 -743 194 0
-210 -60 -16 17 743 0
-210 17 -23 747 746 745 744 0
-210 -17 23 0
-210 -747 193 0
-210 -54 -13 17 747 0
-210 -746 192 0
-210 -57 -14 17 746 0
-210 -745 191 0
-210 -59 -15 17 745 0
-210 -744 190 0
-210 -60 -16 17 744 0
-210 18 -24 0
-210 -18 24 0
-210 188 189 0
-210 186 187 0
-210 184 185 0
-210 182 183 0
-210 180 181 0
-210 178 179 0
-210 176 177 0
-210 174 175 0
-210 172 173 0
-210 170 171 0
-210 159 160 161 162 163 164 165 166 167 168 169 0
-211 0
-212 0
-213 0
-214 0
-215 0
-216 0
-217 0
-218 0
-219 0
-220 0
-209 51 0
-209 13 0
-209 -14 0
-208 52 0
-208 13 0
-208 -15 0
-207 53 0
-207 13 0
-207 -16 0
-206 54 0
-206 13 0
-206 -17 0
-205 51 0
-205 13 0
-205 -14 0
-204 55 0
-204 14 0
-204 -15 0
-203 56 0
-203 14 0
-203 -16 0
-202 57 0
-202 14 0
-202 -17 0
-201 52 0
-201 13 0
-201 -15 0
-200 55 0
-200 14 0
-200 -15 0
-199 58 0
-199 15 0
-199 -16 0
-198 59 0
-198 15 0
-198 -17 0
-197 53 0
-197 13 0
-197 -16 0
-196 56 0
-196 14 0
-196 -16 0
-195 58 0
-195 15 0
-195 -16 0
-194 60 0
-194 16 0
-194 -17 0
-193 54 0
-193 13 0
-193 -17 0
-192 57 0
-192 14 0
-192 -17 0
-191 59 0
-191 15 0
-191 -17 0
-190 60 0
-190 16 0
-190 -17 0
-188 -51 -13 14 0
-189 -19 0
-189 20 0
-186 -52 -13 15 0
-187 -19 0
-187 21 0
-184 -53 -13 16 0
-185 -19 0
-185 22 0
-182 -54 -13 17 0
-183 -19 0
-183 23 0
-180 -55 -14 15 0
-181 -20 0
-181 21 0
-178 -56 -14 16 0
-179 -20 0
-179 22 0
-176 -57 -14 17 0
-177 -20 0
-177 23 0
-174 -58 -15 16 0
-175 -21 0
-175 22 0
-172 -59 -15 17 0
-173 -21 0
-173 23 0
-170 -60 -16 17 0
-171 -22 0
-171 23 0
-159 19 -25 0
-159 -19 25 775 774 773 772 0
-159 -775 158 0
-159 -61 -19 20 775 0
-159 -774 157 0
-159 -62 -19 21 774 0
-159 -773 156 0
-159 -63 -19 22 773 0
-159 -772 155 0
-159 -64 -19 23 772 0
-159 20 -26 776 0
-159 -20 26 779 778 777 0
-159 -776 154 0
-159 -61 -19 20 776 0
-159 -779 153 0
-159 -65 -20 21 779 0
-159 -778 152 0
-159 -66 -20 22 778 0
-159 -777 151 0
-159 -67 -20 23 777 0
-159 21 -27 781 780 0
-159 -21 27 783 782 0
-159 -781 150 0
-159 -62 -19 21 781 0
-159 -780 149 0
-159 -65 -20 21 780 0
-159 -783 148 0
-159 -68 -21 22 783 0
-159 -782 147 0
-159 -69 -21 23 782 0
-159 22 -28 786 785 784 0
-159 -22 28 787 0
-159 -786 146 0
-159 -63 -19 22 786 0
-159 -785 145 0
-159 -66 -20 22 785 0
-159 -784 144 0
-159 -68 -21 22 784 0
-159 -787 143 0
-159 -70 -22 23 787 0
-159 23 -29 791 790 789 788 0
-159 -23 29 0
-159 -791 142 0
-159 -64 -19 23 791 0
-159 -790 141 0
-159 -67 -20 23 790 0
-159 -789 140 0
-159 -69 -21 23 789 0
-159 -788 139 0
-159 -70 -22 23 788 0
-159 24 -30 0
-159 -24 30 0
-159 137 138 0
-159 135 136 0
-159 133 134 0
-159 131 132 0
-159 129 130 0
-159 127 128 0
-159 125 126 0
-159 123 124 0
-159 121 122 0
-159 119 120 0
-159 115 116 117 118 0
-160 0
-161 0
-162 0
-163 0
-164 0
-165 0
-166 0
-167 0
-168 0
-169 0
-158 61 0
-158 19 0
-158 -20 0
-157 62 0
-157 19 0
-157 -21 0
-156 63 0
-156 19 0
-156 -22 0
-155 64 0
-155 19 0
-155 -23 0
-154 61 0
-154 19 0
-154 -20 0
-153 65 0
-153 20 0
-153 -21 0
-152 66 0
-152 20 0
-152 -22 0
-151 67 0
-151 20 0
-151 -23 0
-150 62 0
-150 19 0
-150 -21 0
-149 65 0
-149 20 0
-149 -21 0
-148 68 0
-148 21 0
-148 -22 0
-147 69 0
-147 21 0
-147 -23 0
-146 63 0
-146 19 0
-146 -22 0
-145 66 0
-145 20 0
-145 -22 0
-144 68 0
-144 21 0
-144 -22 0
-143 70 0
-143 22 0
-143 -23 0
-142 64 0
-142 19 0
-142 -23 0
-141 67 0
-141 20 0
-141 -23 0
-140 69 0
-140 21 0
-140 -23 0
-139 70 0
-139 22 0
-139 -23 0
-137 -61 -19 20 0
-138 -25 0
-138 26 0
-135 -62 -19 21 0
-136 -25 0
-136 27 0
-133 -63 -19 22 0
-134 -25 0
-134 28 0
-131 -64 -19 23 0
-132 -25 0
-132 29 0
-129 -65 -20 21 0
-130 -26 0
-130 27 0
-127 -66 -20 22 0
-128 -26 0
-128 28 0
-125 -67 -20 23 0
-126 -26 0
-126 29 0
-123 -68 -21 22 0
-124 -27 0
-124 28 0
-121 -69 -21 23 0
-122 -27 0
-122 29 0
-119 -70 -22 23 0
-120 -28 0
-120 29 0
-115 25 0
-115 -26 0
-116 26 0
-116 -27 0
-117 27 0
-117 -28 0
-118 28 0
-118 -29 0
